#===============================================================================
# Created using the Atomic Simulation Environment (ASE)

# Wed Sep 27 13:57:56 2023

#=======================================================
lattice_vector 0.0000000800000000 2.8151761899999999 2.8151761899999999 
lattice_vector 2.8151760900000000 -0.0000000400000000 2.8151761400000002 
lattice_vector 2.8151761000000000 2.8151761400000002 -0.0000000400000000 
atom_frac 0.4999999973358683 0.5000000008880440 0.5000000044402196 Si
atom_frac 0.7500000048842413 0.7499999995559778 0.7499999960038024 Si
