# 
# This is the geometry file that corresponds to the current relaxation step.
# If you do not want this file to be written, set the "write_restart_geometry" flag to .false.
#  aims_uuid : EA38FB39-DD54-4658-A3C0-ED793EA0F86D                                
# 
lattice_vector      0.00000008      2.81517619      2.81517619
lattice_vector      2.81517609     -0.00000004      2.81517614
lattice_vector      2.81517610      2.81517614     -0.00000004
atom_frac       0.50000000      0.50000000      0.50000000 Si
atom_frac       0.75000000      0.75000000      0.75000000 Si
# 
# What follows is the current estimated Hessian matrix constructed by the BFGS algorithm.
# This is NOT the true Hessian matrix of the system.
# If you do not want this information here, switch it off using the "hessian_to_restart_geometry" keyword.
# 
trust_radius             0.2000000030
hessian_file
