#===============================================================================
# Created using the Atomic Simulation Environment (ASE)

# Wed Sep 27 13:58:28 2023

#=======================================================
lattice_vector 5.6303521099999996 -0.0000000900000001 -0.0000000899999999 
lattice_vector 0.0000000899999996 5.6303523699999998 0.0000000099999999 
lattice_vector 0.0000000700000003 0.0000000099999997 5.6303523699999998 
atom_frac 0.5017760905187862 0.5000000008880439 0.4999999991119562 Si
atom_frac 0.5000000026641317 0.0000000008880439 0.9999999991119561 Si
atom_frac 0.0000000026641316 0.5000000008880436 0.9999999991119559 Si
atom_frac 0.0000000026641316 0.0000000008880439 0.4999999991119562 Si
atom_frac 0.7499999977798899 0.7500000004440217 0.7500000022201095 Si
atom_frac 0.7499999977798901 0.2500000004440219 0.2500000022201097 Si
atom_frac 0.2499999977798899 0.7500000004440218 0.2500000022201094 Si
atom_frac 0.2499999977798899 0.2500000004440219 0.7500000022201094 Si
